50
20
30
60
90
80
80
80
47
15
12
32
20
36
65
65
36
15
10
20
65
26
26
26
26
15
89
89
56
48
25
29
41
29
59
10
10
10
10
10
10
10
10
10
10
10
10
10
10
10
90
50
34
12
10
58
2
56
20
13
53
56
45
43
43
46
19
15
15
41
54
32
56
56
79
89
58
68
25
85
46
12
12
25
23
23
65
75
2
68
86
65
3
86
689
35
85
35
59
98